language Essence 1.3

letting class be function(1 --> 1, 2 --> 1, 3 --> 1, 4 --> 1, 5 --> 1, 6 --> 1, 7 --> 1, 8 --> 1)
letting deck_length be 12
letting deck_width be 22
letting length be function(1 --> 8, 2 --> 1, 3 --> 1, 4 --> 1, 5 --> 1, 6 --> 1, 7 --> 1, 8 --> 1)
letting n_classes be 1
letting n_containers be 8
letting separation be function()
letting width be function(1 --> 9, 2 --> 5, 3 --> 2, 4 --> 1, 5 --> 1, 6 --> 1, 7 --> 1, 8 --> 1)
